
  32    4
  10   10   10   10

   0   0   0   0   0   3 2 6 7 
   6   1   1   1   0   1 3 
   5   5   6   1   0   2 19 4 
   9   5   9   4   0   1 5 
   2   0   4   2   1   3 24 11 8 
   9   3   0   4   3   1 8 
   3   6   2   5   0   3 24 11 10 
   5   4   2   0   8   1 9 
   7   0   3   4   2   2 14 10 
   3   3   3   0   5   3 18 15 12 
   4   6   5   0   4   2 15 12 
   1   4   3   4   0   2 16 13 
   9   3   0   6   2   2 31 17 
   4   5   4   5   0   1 15 
   4   4   3   0   6   1 16 
   3   0   3   4   6   1 20 
   8   4   0   5   4   1 21 
   9   1   5   6   0   1 20 
   1   1   2   0   3   1 20 
   2   7   0   5   1   1 22 
   4   6   0   3   6   1 22 
   3   4   5   0   3   1 23 
   8   7   2   0   5   1 25 
   3   0   3   7   3   1 25 
   1   0   3   2   2   1 26 
   4   3   0   5   5   1 27 
   5   0   7   3   4   2 30 28 
   2   0   5   6   4   1 29 
   7   2   0   6   5   1 32
   1   2   0   1   6   1 32
   2   6   8   3   0   1 32
   0   0   0   0   0   0 
